language ESSENCE' 1.0

letting n_courses be 175
letting n_periods be 30
letting prerequisite_RelationAsSet_Explicit_1 be
        [1, 1, 1, 1, 2, 3, 3, 3, 3, 4, 4, 4, 4, 5, 5, 5, 5, 5, 7, 7, 7, 7, 8, 8, 8, 9, 9, 10, 10, 10, 10, 10, 10, 10,
         11, 11, 11, 11, 11, 11, 12, 12, 13, 14, 14, 15, 15, 15, 15, 16, 16, 16, 17, 17, 17, 18, 18, 19, 19, 19, 20, 20,
         20, 21, 21, 21, 21, 22, 22, 22, 22, 24, 24, 24, 24, 24, 25, 25, 25, 25, 26, 26, 26, 27, 27, 27, 28, 28, 29, 29,
         29, 30, 30, 30, 31, 31, 32, 33, 33, 34, 36, 36, 36, 37, 38, 38, 38, 39, 40, 40, 42, 43, 43, 44, 45, 46, 46, 46,
         50, 50, 53, 54, 54, 55, 56, 57, 58, 58, 59, 60, 61, 62, 63, 64, 65, 65, 65, 66, 67, 67, 69, 70, 72, 73, 73, 76,
         76, 76, 77, 77, 78, 78, 80, 82, 83, 83, 85, 86, 88, 90, 95, 95, 96, 96, 99, 99, 100, 100, 100, 100, 101, 101,
         101, 102, 104, 105, 105, 105, 106, 108, 109, 114, 114, 115, 117, 118, 119, 119;
             int(1..188)]
letting prerequisite_RelationAsSet_Explicit_2 be
        [69, 78, 105, 106, 95, 68, 81, 90, 103, 58, 72, 82, 92, 42, 48, 60, 69, 85, 59, 71, 97, 108, 63, 80, 120, 105,
         107, 62, 84, 86, 91, 96, 110, 114, 40, 45, 47, 67, 88, 118, 53, 66, 44, 83, 111, 65, 84, 89, 113, 54, 64, 115,
         41, 49, 87, 79, 117, 39, 108, 118, 43, 52, 76, 45, 46, 73, 74, 74, 95, 99, 109, 52, 70, 77, 92, 116, 56, 61,
         75, 101, 101, 102, 104, 37, 51, 115, 65, 83, 55, 100, 117, 38, 93, 98, 96, 107, 55, 57, 112, 50, 94, 96, 119,
         151, 130, 132, 152, 129, 132, 157, 153, 126, 162, 133, 166, 136, 169, 172, 142, 143, 165, 130, 175, 127, 163,
         131, 146, 154, 125, 134, 160, 141, 139, 122, 123, 131, 145, 131, 147, 155, 175, 126, 164, 124, 170, 147, 148,
         159, 126, 127, 158, 159, 135, 165, 143, 157, 156, 130, 171, 124, 127, 138, 161, 168, 139, 143, 128, 138, 144,
         166, 140, 167, 174, 150, 124, 122, 126, 135, 149, 121, 168, 145, 169, 137, 173, 146, 135, 139;
             int(1..188)]
letting course_load_Function1D be
        [4, 7, 2, 5, 5, 4, 8, 4, 2, 3, 5, 3, 8, 6, 7, 5, 4, 6, 3, 2, 3, 3, 3, 5, 4, 7, 3, 3, 7, 3, 2, 5, 8, 4, 3, 6, 2,
         5, 3, 3, 8, 5, 8, 3, 5, 4, 4, 4, 5, 3, 5, 7, 2, 3, 2, 4, 4, 2, 2, 7, 3, 8, 4, 2, 6, 4, 7, 7, 7, 6, 8, 3, 4, 6,
         4, 5, 3, 6, 3, 8, 6, 4, 7, 7, 7, 2, 4, 5, 2, 7, 2, 7, 8, 5, 5, 5, 5, 5, 6, 3, 6, 2, 4, 4, 3, 6, 5, 2, 6, 5, 7,
         6, 3, 2, 5, 6, 2, 5, 2, 2, 7, 7, 5, 6, 5, 6, 5, 6, 7, 2, 5, 7, 3, 3, 5, 2, 8, 3, 8, 5, 6, 3, 4, 2, 5, 5, 2, 3,
         6, 7, 3, 6, 6, 3, 8, 7, 2, 4, 5, 3, 2, 2, 8, 7, 8, 3, 3, 4, 3, 3, 6, 2, 4, 4, 7;
             int(1..175)]
letting load_per_period_ub be 34
letting load_per_period_lb be 5
letting courses_per_period_ub be 8
letting courses_per_period_lb be 5
letting fin1 be 188
letting fin2 be 175
letting fin3 be 8
